(set-info :smt-lib-version 2.6)
(set-logic QF_LIA)
(set-info :category "industrial")
(set-info :status sat)
(declare-fun x0 () Int)
(declare-fun x1 () Int)
(declare-fun x10 () Int)
(declare-fun x11 () Int)
(declare-fun x12 () Int)
(declare-fun x13 () Int)
(declare-fun x14 () Int)
(declare-fun x15 () Int)
(declare-fun x16 () Int)
(declare-fun x17 () Int)
(declare-fun x18 () Int)
(declare-fun x19 () Int)
(declare-fun x2 () Int)
(declare-fun x20 () Int)
(declare-fun x21 () Int)
(declare-fun x22 () Int)
(declare-fun x23 () Int)
(declare-fun x24 () Int)
(declare-fun x25 () Int)
(declare-fun x26 () Int)
(declare-fun x27 () Int)
(declare-fun x28 () Int)
(declare-fun x29 () Int)
(declare-fun x3 () Int)
(declare-fun x4 () Int)
(declare-fun x5 () Int)
(declare-fun x6 () Int)
(declare-fun x7 () Int)
(declare-fun x8 () Int)
(declare-fun x9 () Int)
(assert (let ((?v_8 (* 1 x12)) (?v_16 (* 1 x15)) (?v_106 (* 2 x13)) (?v_9 (* 0 x16)) (?v_1 (* 0 x17)) (?v_12 (* 1 x20)) (?v_36 (* 1 x21)) (?v_3 (* 0 x22)) (?v_2 (* 0 x23)) (?v_5 (* 0 x25)) (?v_10 (* 0 x27)) (?v_67 (* 1 x11)) (?v_13 (* 0 x29)) (?v_30 (* 0 x3)) (?v_31 (* 0 x8)) (?v_23 (* 0 x9)) (?v_34 (* 0 x1)) (?v_25 (* 0 x10)) (?v_39 (* 1 x25)) (?v_56 (* 0 x4)) (?v_6 (* 0 x6)) (?v_68 (* 1 x5)) (?v_7 (* 0 x15)) (?v_17 (* 0 x18)) (?v_42 (* 1 x1)) (?v_76 (* 1 x10)) (?v_45 (* 1 x16)) (?v_11 (* 1 x17)) (?v_55 (* 1 x19)) (?v_38 (* 1 x24)) (?v_28 (* 1 x26)) (?v_82 (* 1 x28)) (?v_32 (* 1 x7))) (let ((?v_83 (+ ?v_82 ?v_32)) (?v_24 (* 0 x0)) (?v_26 (* 0 x14)) (?v_80 (* 1 x13)) (?v_20 (* 0 x2)) (?v_37 (* 1 x22)) (?v_21 (* 1 x23)) (?v_92 (* 0 x28)) (?v_22 (* 1 x8)) (?v_27 (* 0 x19)) (?v_64 (* 0 x7)) (?v_57 (* 1 x29)) (?v_51 (* 1 x4)) (?v_50 (* 1 x3)) (?v_35 (* 0 x11)) (?v_53 (* 1 x18)) (?v_60 (* 0 x24)) (?v_63 (* 0 x5)) (?v_96 (+ ?v_32 ?v_23)) (?v_74 (* 1 x0)) (?v_61 (* 1 x14)) (?v_54 (* 0 x21)) (?v_99 (+ ?v_23 (* 2 x3))) (?v_69 (* 0 x12)) (?v_58 (* 0 x20)) (?v_93 (* 1 x27)) (?v_65 (* 0 x13)) (?v_79 (* 2 x1)) (?v_66 (* 1 x2)) (?v_73 (* 0 x26)) (?v_71 (* 1 x6)) (?v_81 (* 2 x29)) (?v_77 (* 1 x9))) (let ((?v_101 (+ ?v_63 ?v_22)) (?v_84 (* 2 x23)) (?v_85 (+ ?v_23 ?v_82)) (?v_102 (* 2 x26)) (?v_94 (* 2 x19)) (?v_105 (* 2 x5)) (?v_104 (* 2 x15)) (?v_14 (* (- 1) x10)) (?v_44 (* (- 1) x2)) (?v_0 (* (- 1) x24)) (?v_90 (* (- 1) x26)) (?v_4 (* (- 1) x20)) (?v_29 (* (- 1) x29)) (?v_47 (* (- 1) x7)) (?v_41 (* (- 1) x0)) (?v_43 (* (- 1) x12)) (?v_52 (* (- 1) x14)) (?v_49 (* (- 1) x23)) (?v_18 (* (- 1) x27)) (?v_15 (* (- 1) x11)) (?v_19 (* (- 1) x6)) (?v_46 (* (- 1) x5)) (?v_48 (* (- 1) x17)) (?v_72 (* (- 1) x1)) (?v_33 (* (- 1) x15)) (?v_40 (* (- 1) x28)) (?v_75 (* (- 1) x16)) (?v_62 (* (- 1) x8)) (?v_59 (* (- 1) x22)) (?v_95 (* (- 1) x9)) (?v_89 (* (- 2) x2)) (?v_88 (* (- 1) x18)) (?v_70 (* (- 1) x3)) (?v_98 (* (- 2) x0)) (?v_78 (* (- 1) x21)) (?v_87 (* (- 1) x25)) (?v_86 (* (- 1) x19)) (?v_91 (* (- 1) x4)) (?v_100 (* (- 2) x24)) (?v_103 (* (- 2) x5)) (?v_97 (* (- 1) x13))) (and (<= (+ ?v_14 (+ ?v_44 (+ ?v_0 (+ ?v_90 (+ ?v_8 (+ ?v_16 (+ ?v_106 (+ ?v_9 (+ ?v_1 (+ ?v_12 (+ ?v_36 (+ ?v_3 (+ ?v_2 (+ ?v_5 (+ ?v_10 (+ ?v_67 (+ (* (- 2) x28) (+ ?v_13 (+ ?v_30 (+ ?v_31 ?v_23)))))))))))))))))))) 0) (<= (+ (* (- 2) x18) (+ (* (- 2) x21) (+ ?v_4 (+ ?v_0 (+ ?v_34 (+ ?v_25 (+ (* (- 3) x11) (+ ?v_1 (+ ?v_2 (+ ?v_39 (+ ?v_29 (+ ?v_47 (+ ?v_3 (+ ?v_56 (+ ?v_6 ?v_68))))))))))))))) 1) (<= (+ ?v_41 (+ ?v_43 (+ ?v_52 (+ ?v_7 (+ ?v_17 (+ ?v_4 (+ ?v_49 (+ ?v_5 (+ ?v_18 (+ ?v_6 (+ ?v_42 (+ ?v_76 (+ ?v_45 (+ ?v_11 (+ ?v_55 (+ ?v_38 (+ ?v_28 ?v_83))))))))))))))))) (- 1)) (<= (+ ?v_24 (+ ?v_15 (+ ?v_26 (+ ?v_0 (+ ?v_7 (+ ?v_19 (+ ?v_8 (+ ?v_80 (+ ?v_46 (+ ?v_9 (+ ?v_20 (+ ?v_10 (+ ?v_11 (+ ?v_12 (+ (* 2 x21) (+ ?v_13 (+ ?v_37 (+ ?v_21 (+ (* 2 x25) (+ ?v_92 ?v_22)))))))))))))))))))) 1) (<= (+ ?v_14 (+ ?v_15 (+ ?v_16 (+ ?v_48 (+ ?v_17 (+ ?v_0 (+ ?v_18 (+ ?v_19 (+ ?v_8 (+ ?v_27 (+ ?v_20 (+ ?v_4 (+ ?v_5 (+ ?v_21 (+ ?v_64 (+ ?v_57 (+ ?v_51 (+ ?v_22 (+ ?v_23 ?v_50))))))))))))))))))) 1) (<= (+ ?v_72 (+ ?v_33 (+ ?v_24 (+ ?v_25 (+ ?v_35 (+ ?v_26 (+ ?v_1 (+ ?v_53 (+ ?v_27 (+ ?v_60 (+ ?v_28 (+ ?v_10 (+ ?v_12 (+ ?v_40 (+ ?v_29 (+ ?v_30 (+ ?v_63 (+ ?v_6 (+ ?v_31 ?v_96))))))))))))))))))) 1) (<= (+ ?v_33 (+ ?v_34 (+ ?v_75 (+ ?v_25 (+ ?v_74 (+ ?v_35 (+ ?v_26 (+ ?v_27 (+ ?v_36 (+ ?v_2 (+ ?v_37 (+ ?v_38 (+ ?v_39 (+ ?v_40 (+ ?v_13 ?v_30))))))))))))))) 0) (<= (+ ?v_41 (+ ?v_42 (+ ?v_25 (+ ?v_15 (+ ?v_43 (+ ?v_61 (+ ?v_16 (+ ?v_44 (+ ?v_0 (+ ?v_54 (+ ?v_2 (+ ?v_5 (+ ?v_10 (+ ?v_45 (+ (* 2 x20) (+ ?v_3 (+ ?v_40 (+ ?v_46 (+ ?v_47 (+ ?v_62 ?v_99)))))))))))))))))))) 0) (<= (+ ?v_41 (+ ?v_48 (+ ?v_49 (+ ?v_35 (+ ?v_69 (+ ?v_9 (+ ?v_27 (+ ?v_20 (+ ?v_58 (+ ?v_36 (+ ?v_3 (+ ?v_10 (+ ?v_40 (+ ?v_31 (+ ?v_23 (+ ?v_50 ?v_51)))))))))))))))) 0) (<= (+ ?v_43 (+ ?v_52 (+ ?v_48 (+ ?v_0 (+ ?v_24 (+ ?v_25 (+ ?v_16 (+ ?v_9 (+ ?v_53 (+ ?v_54 (+ ?v_55 (+ ?v_59 (+ ?v_39 (+ ?v_93 (+ ?v_40 (+ ?v_56 (+ ?v_6 (+ ?v_57 (+ ?v_95 ?v_50))))))))))))))))))) (- 1)) (<= (+ ?v_89 (+ ?v_41 (+ ?v_49 (+ ?v_65 (+ ?v_42 (+ ?v_9 (+ ?v_17 (+ ?v_11 (+ ?v_58 (+ ?v_54 (+ ?v_59 (+ ?v_60 (+ ?v_40 (+ ?v_46 (+ ?v_13 (+ ?v_6 (+ ?v_31 (+ ?v_50 (+ ?v_51 ?v_32))))))))))))))))))) 1) (<= (+ ?v_41 (+ ?v_43 (+ ?v_88 (+ ?v_61 (+ ?v_79 (+ ?v_9 (+ ?v_66 (+ ?v_59 (+ ?v_73 (+ ?v_10 (+ ?v_21 (+ ?v_38 (+ ?v_39 (+ ?v_40 (+ ?v_62 (+ ?v_63 (+ ?v_71 (+ ?v_64 (+ ?v_81 ?v_77))))))))))))))))))) 0) (<= (+ ?v_41 (+ ?v_43 (+ ?v_33 (+ ?v_48 (+ ?v_65 (+ ?v_17 (+ ?v_66 (+ ?v_4 (+ ?v_54 (+ ?v_3 (+ ?v_2 (+ ?v_39 (+ ?v_10 (+ ?v_67 (+ ?v_40 (+ ?v_13 (+ ?v_70 (+ ?v_62 (+ ?v_56 (+ ?v_64 (+ ?v_68 ?v_23))))))))))))))))))))) 1) (<= (+ ?v_98 (+ ?v_69 (+ (* (- 2) x13) (+ ?v_26 (+ ?v_7 (+ ?v_78 (+ ?v_42 (+ ?v_9 (+ ?v_3 (+ ?v_2 (+ ?v_60 (+ ?v_39 (+ ?v_28 (+ ?v_40 (+ ?v_29 (+ ?v_70 (+ ?v_71 (+ ?v_62 ?v_23)))))))))))))))))) 0) (<= (+ ?v_72 (+ ?v_43 (+ ?v_52 (+ ?v_17 (+ ?v_0 (+ ?v_7 (+ ?v_87 (+ ?v_18 (+ ?v_27 (+ ?v_73 (+ ?v_74 (+ ?v_67 (+ ?v_45 (+ ?v_11 (+ ?v_40 (+ ?v_13 (+ ?v_70 (+ ?v_19 ?v_101)))))))))))))))))) 1) (<= (+ ?v_52 (+ ?v_69 (+ ?v_75 (+ ?v_17 (+ ?v_60 (+ ?v_10 (+ ?v_74 (+ ?v_76 (+ ?v_11 (+ ?v_55 (+ ?v_37 (+ ?v_84 (+ ?v_57 (+ ?v_70 (+ ?v_19 (+ ?v_51 (+ ?v_63 (+ ?v_22 ?v_77)))))))))))))))))) 1) (<= (+ ?v_44 (+ ?v_49 (+ ?v_62 (+ ?v_24 (+ ?v_34 (+ ?v_35 (+ ?v_69 (+ ?v_65 (+ ?v_17 (+ ?v_61 (+ ?v_58 (+ ?v_60 (+ ?v_5 (+ ?v_45 (+ ?v_36 (+ ?v_13 (+ ?v_30 (+ ?v_64 (* 3 x5))))))))))))))))))) 0) (<= (+ ?v_33 (+ ?v_86 (+ ?v_78 (+ ?v_62 (+ ?v_24 (+ ?v_79 (+ ?v_25 (+ ?v_35 (+ ?v_80 (+ ?v_9 (+ ?v_17 (+ ?v_58 (+ ?v_38 (+ ?v_5 (+ ?v_10 (+ ?v_21 (+ ?v_56 (+ ?v_6 (+ ?v_81 ?v_85))))))))))))))))))) 0) (<= (+ ?v_43 (+ ?v_75 (+ ?v_49 (+ ?v_0 (+ ?v_91 (+ ?v_62 (+ ?v_24 (+ ?v_35 (+ ?v_65 (+ ?v_26 (+ ?v_16 (+ ?v_1 (+ ?v_5 (+ ?v_6 (+ ?v_55 (+ ?v_66 (+ ?v_36 (+ ?v_3 (+ ?v_102 (+ ?v_13 ?v_83)))))))))))))))))))) 1) (<= (+ ?v_52 (+ ?v_100 (+ ?v_33 (+ ?v_78 (+ ?v_24 (+ ?v_65 (+ ?v_20 (+ ?v_5 (+ ?v_42 (+ ?v_11 (+ ?v_94 (+ ?v_59 (+ ?v_84 (+ ?v_29 (+ ?v_35 (+ ?v_31 (+ ?v_68 ?v_85))))))))))))))))) 1) (<= (+ ?v_14 (+ ?v_43 (+ ?v_86 (+ ?v_87 (+ ?v_24 (+ ?v_42 (+ ?v_35 (+ ?v_7 (+ ?v_9 (+ ?v_73 (+ ?v_53 (+ ?v_56 (+ ?v_64 (+ ?v_37 (+ ?v_38 (+ ?v_57 (+ ?v_70 ?v_71))))))))))))))))) 1) (<= (+ (* (- 2) x14) (+ ?v_88 (+ ?v_89 (+ ?v_0 (+ ?v_90 (+ ?v_18 (+ ?v_91 (+ ?v_34 (+ ?v_9 (+ ?v_27 (+ ?v_36 (+ ?v_29 (+ ?v_3 (+ ?v_5 (+ ?v_92 ?v_31))))))))))))))) 0) (<= (+ ?v_41 (+ ?v_48 (+ ?v_90 (+ ?v_34 (+ ?v_25 (+ ?v_26 (+ ?v_17 (+ ?v_80 (+ ?v_9 (+ ?v_58 (+ ?v_29 (+ ?v_3 (+ ?v_2 (+ ?v_60 (+ ?v_5 (+ ?v_93 (+ ?v_56 (+ ?v_71 (+ ?v_32 (+ ?v_22 ?v_23)))))))))))))))))))) (- 1)) (<= (+ ?v_72 (+ ?v_52 (+ ?v_44 (+ ?v_24 (+ ?v_25 (+ ?v_16 (+ ?v_2 (+ ?v_60 (+ ?v_45 (+ ?v_28 (+ ?v_93 (+ (* (- 2) x29) (+ ?v_91 (+ ?v_103 (+ ?v_92 (+ ?v_30 (+ ?v_64 (+ ?v_31 ?v_77)))))))))))))))))) 1) (<= (+ ?v_43 (+ ?v_33 (+ ?v_34 (+ ?v_75 (+ ?v_88 (+ ?v_4 (+ ?v_78 (+ ?v_49 (+ ?v_25 (+ ?v_35 (+ ?v_65 (+ ?v_11 (+ ?v_27 (+ ?v_20 (+ ?v_38 (+ ?v_10 (+ ?v_92 (+ ?v_30 (+ ?v_6 (* 2 x4)))))))))))))))))))) 0) (<= (+ (* (- 2) x8) (+ ?v_41 (+ ?v_97 (+ ?v_49 (+ ?v_90 (+ ?v_58 (+ ?v_5 (+ ?v_42 (+ ?v_8 (+ (* 3 x14) (+ ?v_16 (+ ?v_93 (+ ?v_94 (+ ?v_59 (+ ?v_29 (+ ?v_47 (+ ?v_92 (+ ?v_30 ?v_23)))))))))))))))))) 0) (<= (+ ?v_72 (+ ?v_52 (+ ?v_33 (+ ?v_88 (+ ?v_78 (+ ?v_49 (+ ?v_90 (+ ?v_18 (+ ?v_62 (+ ?v_24 (+ ?v_95 (+ ?v_35 (+ ?v_20 (+ ?v_11 (+ ?v_55 (+ ?v_58 (+ ?v_37 (+ ?v_39 (+ ?v_92 (+ ?v_30 ?v_68)))))))))))))))))))) 0) (<= (+ ?v_43 (+ ?v_52 (+ ?v_33 (+ ?v_44 (+ ?v_90 (+ ?v_24 (+ ?v_42 (+ ?v_25 (+ ?v_1 (+ ?v_53 (+ ?v_54 (+ ?v_12 (+ ?v_59 (+ ?v_60 (+ ?v_21 (+ ?v_95 (+ ?v_67 (+ ?v_92 ?v_30)))))))))))))))))) 0) (<= (+ ?v_49 (+ ?v_87 (+ ?v_34 (+ ?v_25 (+ ?v_8 (+ ?v_27 (+ ?v_10 (+ ?v_80 (+ ?v_66 (+ ?v_36 (+ ?v_38 (+ (* 2 x0) (+ ?v_29 (+ ?v_37 (+ ?v_92 (+ ?v_51 (+ ?v_63 (+ ?v_6 ?v_96)))))))))))))))))) 0) (<= (+ ?v_41 (+ ?v_97 (+ ?v_4 (+ ?v_34 (+ ?v_9 (+ ?v_27 (+ (* 2 x10) (+ (* (- 2) x11) (+ ?v_59 (+ ?v_2 (+ ?v_95 (+ ?v_92 (+ ?v_13 (+ ?v_64 (+ ?v_31 (+ ?v_50 (+ ?v_51 ?v_68))))))))))))))))) 0) (<= (+ ?v_98 (+ ?v_72 (+ ?v_65 (+ ?v_7 (+ ?v_75 (+ ?v_0 (+ ?v_1 (+ ?v_27 (+ ?v_2 (+ ?v_10 (+ ?v_37 (+ ?v_28 (+ ?v_95 (+ ?v_92 (+ ?v_13 (+ ?v_50 ?v_71)))))))))))))))) 1) (<= (+ ?v_52 (+ ?v_49 (+ ?v_19 (+ ?v_24 (+ ?v_34 (+ ?v_35 (+ ?v_7 (+ ?v_1 (+ ?v_27 (+ ?v_20 (+ ?v_54 (+ ?v_10 (+ ?v_45 (+ ?v_37 (+ ?v_92 (+ ?v_64 (+ ?v_23 (+ ?v_50 ?v_105)))))))))))))))))) (- 1)) (<= (+ ?v_97 (+ ?v_86 (+ ?v_90 (+ ?v_19 (+ ?v_47 (+ ?v_34 (+ ?v_35 (+ ?v_7 (+ ?v_1 (+ ?v_17 (+ ?v_20 (+ ?v_60 (+ ?v_10 (+ ?v_8 (+ ?v_12 (+ ?v_3 (+ ?v_39 (+ ?v_92 (+ ?v_50 ?v_77))))))))))))))))))) 1) (<= (+ ?v_42 (+ ?v_61 (+ ?v_9 (+ ?v_1 (+ ?v_2 (+ ?v_60 (+ ?v_73 (+ ?v_10 (+ ?v_76 (+ ?v_55 (+ ?v_13 (+ ?v_56 (+ ?v_63 (+ ?v_6 (+ ?v_64 ?v_77))))))))))))))) 1) (<= (+ ?v_26 (+ ?v_17 (+ ?v_0 (+ ?v_20 (+ ?v_73 (+ ?v_31 (+ ?v_74 (+ ?v_42 (+ ?v_8 (+ (* 4 x13) (+ ?v_12 (+ ?v_36 (+ ?v_39 (+ ?v_84 (+ ?v_68 (+ ?v_71 (+ ?v_32 ?v_99))))))))))))))))) (- 1)) (<= (+ ?v_97 (+ ?v_44 (+ ?v_19 (+ ?v_24 (+ ?v_42 (+ ?v_25 (+ ?v_69 (+ ?v_26 (+ ?v_16 (+ ?v_27 (+ ?v_60 (+ ?v_5 (+ ?v_73 (+ ?v_10 (+ ?v_36 (+ ?v_31 (+ ?v_23 (+ ?v_82 (+ ?v_57 ?v_68))))))))))))))))))) (- 1)) (<= (+ (* (- 2) x15) (+ ?v_75 (+ ?v_78 (+ ?v_91 (+ ?v_62 (+ ?v_24 (+ ?v_25 (+ ?v_69 (+ ?v_65 (+ ?v_26 (+ ?v_1 (+ ?v_17 (+ ?v_27 (+ ?v_66 (+ ?v_3 (+ ?v_2 (+ ?v_6 ?v_85))))))))))))))))) 0) (<= (+ (* (- 2) x26) (+ ?v_34 (+ ?v_14 (+ ?v_69 (+ ?v_26 (+ ?v_17 (+ ?v_86 (+ ?v_20 (+ ?v_54 (+ ?v_49 (+ ?v_65 (+ ?v_60 (+ ?v_10 (+ ?v_56 (+ ?v_64 (+ ?v_74 (+ ?v_45 (+ ?v_71 ?v_95)))))))))))))))))) (- 1)) (<= (+ ?v_43 (+ (* (- 2) x19) (+ ?v_100 (+ ?v_97 (+ ?v_44 (+ ?v_87 (+ ?v_91 (+ ?v_47 (+ ?v_34 (+ ?v_58 (+ ?v_10 (+ ?v_67 (+ ?v_61 (+ ?v_21 (+ ?v_92 ?v_101))))))))))))))) 1) (<= (+ ?v_72 (+ ?v_25 (+ ?v_8 (+ ?v_65 (+ ?v_17 (+ ?v_61 (+ ?v_55 (+ ?v_58 (+ ?v_5 (+ ?v_21 (+ ?v_93 (+ ?v_13 (+ ?v_67 (+ ?v_30 (+ ?v_56 (+ ?v_31 (+ ?v_68 (+ ?v_71 ?v_77)))))))))))))))))) 0) (<= (+ ?v_72 (+ ?v_52 (+ ?v_48 (+ ?v_4 (+ ?v_0 (+ ?v_90 (+ ?v_25 (+ ?v_8 (+ ?v_65 (+ ?v_104 (+ ?v_20 (+ ?v_10 (+ ?v_55 (+ ?v_39 (+ ?v_56 (+ ?v_63 (+ ?v_71 (+ ?v_64 (+ ?v_31 (+ ?v_67 (+ (* 2 x22) ?v_70))))))))))))))))))))) 1) (<= (+ ?v_34 (+ ?v_75 (+ ?v_86 (+ ?v_25 (+ ?v_26 (+ ?v_80 (+ ?v_16 (+ ?v_66 (+ ?v_58 (+ ?v_59 (+ ?v_2 (+ ?v_102 (+ ?v_13 (+ ?v_67 (+ ?v_70 (+ ?v_56 (+ ?v_31 (+ ?v_68 ?v_77)))))))))))))))))) (- 1)) (<= (+ ?v_48 (+ ?v_4 (+ ?v_103 (+ ?v_19 (+ ?v_62 (+ ?v_24 (+ ?v_25 (+ ?v_15 (+ ?v_69 (+ ?v_26 (+ ?v_104 (+ ?v_54 (+ ?v_55 (+ ?v_3 (+ ?v_28 (+ ?v_13 (+ ?v_23 (+ ?v_82 ?v_30)))))))))))))))))) 1) (<= (+ ?v_52 (+ ?v_86 (+ ?v_4 (+ ?v_91 (+ ?v_24 (+ ?v_34 (+ ?v_25 (+ ?v_9 (+ ?v_1 (+ ?v_10 (+ ?v_31 (+ ?v_23 (+ ?v_67 (+ ?v_66 (+ (* 3 x12) (+ ?v_37 (+ ?v_21 (+ ?v_82 (+ ?v_57 (+ ?v_30 ?v_105)))))))))))))))))))) 1) (<= (+ ?v_90 (+ ?v_42 (+ ?v_35 (+ ?v_1 (+ ?v_106 (+ (* 2 x18) (+ ?v_58 (+ ?v_54 (+ ?v_2 (+ ?v_10 (+ ?v_63 (+ ?v_23 (+ ?v_82 (+ ?v_50 (+ ?v_32 ?v_22))))))))))))))) (- 1)))))))
(check-sat)
(exit)
